Instance name: /mnt/c/Users/ORG/CLionProjects/uMV-FSTSP/Murray_Chu_2015_test_data/FSTSP/FSTSP_10_customer_problems/20140810T123437v8

drone speed: 0.4 miles/minute
uav non-eligible customer: 10 
Printing number of nodes: 11

Gurobi Optimizer version 11.0.0 build v11.0.0rc2 (linux64 - "Ubuntu 22.04.3 LTS")

CPU model: 13th Gen Intel(R) Core(TM) i5-13500, instruction set [SSE2|AVX|AVX2]
Thread count: 10 physical cores, 20 logical processors, using up to 20 threads

Optimize a model with 44485 rows, 1957 columns and 1837894 nonzeros
Model fingerprint: 0x0f8afe29
Variable types: 11 continuous, 1946 integer (1814 binary)
Coefficient statistics:
  Matrix range     [6e-01, 2e+01]
  Objective range  [8e-01, 2e+01]
  Bounds range     [1e+00, 1e+00]
  RHS range        [1e+00, 9e+00]
Found heuristic solution: objective 174.3525321
Presolve removed 28769 rows and 903 columns
Presolve time: 2.49s
Presolved: 15716 rows, 1054 columns, 484133 nonzeros
Variable types: 9 continuous, 1045 integer (1045 binary)
Found heuristic solution: objective 161.2361113
Root relaxation presolved: 15716 rows, 1054 columns, 484133 nonzeros


Root relaxation: objective 5.192803e+01, 3662 iterations, 1.56 seconds (3.41 work units)

    Nodes    |    Current Node    |     Objective Bounds      |     Work
 Expl Unexpl |  Obj  Depth IntInf | Incumbent    BestBd   Gap | It/Node Time

     0     0   51.92803    0  139  161.23611   51.92803  67.8%     -    4s
H    0     0                     131.9555931   51.92803  60.6%     -    4s
H    0     0                     124.4996913   51.92803  58.3%     -    4s
H    0     0                      81.8258697   51.92803  36.5%     -    4s
     0     0   53.48725    0  186   81.82587   53.48725  34.6%     -    4s
H    0     0                      66.6948608   53.70305  19.5%     -    5s
     0     0   53.70305    0  192   66.69486   53.70305  19.5%     -    5s
     0     0   53.70305    0  194   66.69486   53.70305  19.5%     -    5s
H    0     0                      65.7175894   54.51023  17.1%     -    5s
     0     0   54.51023    0  201   65.71759   54.51023  17.1%     -    5s
H    0     0                      63.8040192   54.61439  14.4%     -    6s
     0     0   54.72453    0  190   63.80402   54.72453  14.2%     -    6s
     0     0   54.95608    0  195   63.80402   54.95608  13.9%     -    6s
H    0     0                      62.3813003   54.99342  11.8%     -    6s
     0     0   54.99342    0  203   62.38130   54.99342  11.8%     -    6s
     0     0   54.99529    0  203   62.38130   54.99529  11.8%     -    6s
     0     0   54.99529    0  206   62.38130   54.99529  11.8%     -    6s
     0     0   55.50560    0  239   62.38130   55.50560  11.0%     -    7s
     0     0   55.50564    0  235   62.38130   55.50564  11.0%     -    7s
     0     0   55.68276    0  243   62.38130   55.68276  10.7%     -    7s
     0     0   55.68952    0  242   62.38130   55.68952  10.7%     -    7s
     0     0   55.71546    0  260   62.38130   55.71546  10.7%     -    7s
     0     0   55.71568    0  246   62.38130   55.71568  10.7%     -    7s
     0     0   55.78223    0  251   62.38130   55.78223  10.6%     -    8s
     0     0   55.80983    0  256   62.38130   55.80983  10.5%     -    8s
     0     0   55.94615    0  249   62.38130   55.94615  10.3%     -    8s
     0     0   55.99021    0  264   62.38130   55.99021  10.2%     -    9s
     0     0   55.99021    0  276   62.38130   55.99021  10.2%     -    9s
     0     0   55.99021    0  279   62.38130   55.99021  10.2%     -    9s
     0     0   55.99021    0  274   62.38130   55.99021  10.2%     -    9s
     0     0   55.99021    0  274   62.38130   55.99021  10.2%     -   10s
     0     0   55.99021    0  273   62.38130   55.99021  10.2%     -   10s
     0     0   56.04823    0  274   62.38130   56.04823  10.2%     -   11s
     0     0   56.58691    0  277   62.38130   56.58691  9.29%     -   11s
     0     0   56.58691    0  280   62.38130   56.58691  9.29%     -   11s
     0     0   56.58691    0  283   62.38130   56.58691  9.29%     -   12s
     0     0   56.59014    0  279   62.38130   56.59014  9.28%     -   12s
     0     0   56.59014    0  279   62.38130   56.59014  9.28%     -   12s
     0     0   56.59014    0  279   62.38130   56.59014  9.28%     -   13s
     0     2   56.59014    0  279   62.38130   56.59014  9.28%     -   14s
     3     8   60.22402    2  174   62.38130   56.59014  9.28%   383   15s
    78    46     cutoff    8        62.38130   59.16234  5.16%   212   20s
   185    20   61.88152    9  141   62.38130   59.16234  5.16%   152   25s

Cutting planes:
  Cover: 20
  Clique: 7
  MIR: 11
  StrongCG: 1
  GUB cover: 1
  Zero half: 19
  Mod-K: 1
  RLT: 105

Explored 267 nodes (39035 simplex iterations) in 28.45 seconds (45.49 work units)
Thread count was 20 (of 20 available processors)

Solution count 9: 62.3813 63.804 65.7176 ... 174.353

Optimal solution found (tolerance 1.00e-04)
Best objective 6.238130032087e+01, best bound 6.238130032087e+01, gap 0.0000%
Truck arcs: 
0 9 7.71706
1 10 12.0132
4 8 1.94864
5 7 0.777831
6 5 0.955922
7 1 7.04774
8 6 5.60229
9 4 9.26756
10 11 12.8383
Theta:
Theta_2 = 1
Theta_3 = 1
Drone arcs:
0 2
2 4
3 1
4 3
Gamma:
gamma_2_0_9= 1
gamma_2_9_4= 1
gamma_3_4_8= 1
gamma_3_5_7= 1
gamma_3_6_5= 1
gamma_3_7_1= 1
gamma_3_8_6= 1
Sigma:
Sigma_1 = 0
Sigma_2 = 0
Sigma_3 = 1.21271
Sigma_4 = 0
Sigma_5 = 0
Sigma_6 = 0
Sigma_7 = 0
Sigma_8 = 0
Sigma_9 = 0
Sigma_10 = 0
Sigma_11 = 0
middle of 2 sortie are: 9 
middle of 3 sortie are: 5 6 7 8 
Objective: 62.3813
Number of sorties: 2
